! pw.x input generated by material-identifier
! formula:        TiO2
! name:           Titanium Dioxide (Rutile)
! space group:    P4_2/mnm (#136)
! crystal system: tetragonal
! source:         LLM-inferred (confidence: high)
! electronic:     insulator/semiconductor — fixed occupations
!
! Pseudopotentials follow the SSSP Efficiency v1.3 naming
! convention. Provide the UPF files via pseudo_dir.
! Cutoffs and k-points are starting values — converge for production.
&CONTROL
  calculation = 'scf'
  prefix      = 'TiO2'
  pseudo_dir  = './pseudos/'
  outdir      = './out/'
  verbosity   = 'high'
  tprnfor     = .true.
  tstress     = .true.
/
&SYSTEM
  ibrav       = 0
  nat         = 6
  ntyp        = 2
  ecutwfc     = 50
  ecutrho     = 400
  occupations = 'fixed'
/
&ELECTRONS
  conv_thr    = 1.0e-08
  mixing_beta = 0.4
/

ATOMIC_SPECIES
  Ti     47.8670  Ti.pbe-spn-kjpaw_psl.1.0.0.UPF
  O      15.9990  O.pbe-n-kjpaw_psl.0.1.UPF

CELL_PARAMETERS angstrom
     4.594000000    0.000000000    0.000000000
     0.000000000    4.594000000    0.000000000
     0.000000000    0.000000000    2.958000000

ATOMIC_POSITIONS crystal
  Ti    0.00673553  -0.01074230   0.01033872
  Ti    0.50431300   0.49652265   0.48835292
  O     0.31495240   0.30144307  -0.01376789
  O     0.68622151   0.70256409   0.00350663
  O     0.20168542   0.81000069   0.50122475
  O     0.81529856   0.19235599   0.50175932

K_POINTS automatic
  7 7 11  0 0 0
