! pw.x input generated by material-identifier
! formula:        TiO2
! name:           Titanium Dioxide (Rutile)
! space group:    P4_2/mnm (#136)
! crystal system: tetragonal
! source:         LLM-inferred (confidence: high)
! electronic:     insulator/semiconductor — fixed occupations
!
! Pseudopotentials follow the SSSP Efficiency v1.3 naming
! convention. Provide the UPF files via pseudo_dir.
! Cutoffs and k-points are starting values — converge for production.
&CONTROL
  calculation = 'scf'
  prefix      = 'TiO2'
  pseudo_dir  = './pseudos/'
  outdir      = './out/'
  verbosity   = 'high'
  tprnfor     = .true.
  tstress     = .true.
/
&SYSTEM
  ibrav       = 0
  nat         = 48
  ntyp        = 2
  ecutwfc     = 50
  ecutrho     = 400
  occupations = 'fixed'
/
&ELECTRONS
  conv_thr    = 1.0e-08
  mixing_beta = 0.4
/

ATOMIC_SPECIES
  Ti     47.8670  Ti.pbe-spn-kjpaw_psl.1.0.0.UPF
  O      15.9990  O.pbe-n-kjpaw_psl.0.1.UPF

CELL_PARAMETERS angstrom
     9.188000000    0.000000000    0.000000000
     0.000000000    9.188000000    0.000000000
     0.000000000    0.000000000    5.916000000

ATOMIC_POSITIONS crystal
  Ti    0.00000000   0.00000000   0.00000000
  Ti    0.25000000   0.25000000   0.25000000
  O     0.15250000   0.15250000   0.00000000
  O     0.34750000   0.34750000   0.00000000
  O     0.09750000   0.40250000   0.25000000
  O     0.40250000   0.09750000   0.25000000
  Ti    0.00000000   0.00000000   0.50000000
  Ti    0.25000000   0.25000000   0.75000000
  O     0.15250000   0.15250000   0.50000000
  O     0.34750000   0.34750000   0.50000000
  O     0.09750000   0.40250000   0.75000000
  O     0.40250000   0.09750000   0.75000000
  Ti    0.00000000   0.50000000   0.00000000
  Ti    0.25000000   0.75000000   0.25000000
  O     0.15250000   0.65250000   0.00000000
  O     0.34750000   0.84750000   0.00000000
  O     0.09750000   0.90250000   0.25000000
  O     0.40250000   0.59750000   0.25000000
  Ti    0.00000000   0.50000000   0.50000000
  Ti    0.25000000   0.75000000   0.75000000
  O     0.15250000   0.65250000   0.50000000
  O     0.34750000   0.84750000   0.50000000
  O     0.09750000   0.90250000   0.75000000
  O     0.40250000   0.59750000   0.75000000
  Ti    0.50000000   0.00000000   0.00000000
  Ti    0.75000000   0.25000000   0.25000000
  O     0.65250000   0.15250000   0.00000000
  O     0.84750000   0.34750000   0.00000000
  O     0.59750000   0.40250000   0.25000000
  O     0.90250000   0.09750000   0.25000000
  Ti    0.50000000   0.00000000   0.50000000
  Ti    0.75000000   0.25000000   0.75000000
  O     0.65250000   0.15250000   0.50000000
  O     0.84750000   0.34750000   0.50000000
  O     0.59750000   0.40250000   0.75000000
  O     0.90250000   0.09750000   0.75000000
  Ti    0.50000000   0.50000000   0.00000000
  Ti    0.75000000   0.75000000   0.25000000
  O     0.65250000   0.65250000   0.00000000
  O     0.84750000   0.84750000   0.00000000
  O     0.59750000   0.90250000   0.25000000
  O     0.90250000   0.59750000   0.25000000
  Ti    0.50000000   0.50000000   0.50000000
  Ti    0.75000000   0.75000000   0.75000000
  O     0.65250000   0.65250000   0.50000000
  O     0.84750000   0.84750000   0.50000000
  O     0.59750000   0.90250000   0.75000000
  O     0.90250000   0.59750000   0.75000000

K_POINTS automatic
  4 4 6  0 0 0
